Minimize
 obj: + y_0 + y_1 + y_2 + y_3 + y_4 + y_5 + y_6 + y_7 + y_8 + y_9 + y_10 + y_11
Subject To
c0: + x0_0+ x0_1+ x0_2+ x0_3+ x0_4+ x0_5+ x0_6+ x0_7+ x0_8+ x0_9+ x0_10+ x0_11 = 1
c1: + x1_0+ x1_1+ x1_2+ x1_3+ x1_4+ x1_5+ x1_6+ x1_7+ x1_8+ x1_9+ x1_10+ x1_11 = 1
c2: + x2_0+ x2_1+ x2_2+ x2_3+ x2_4+ x2_5+ x2_6+ x2_7+ x2_8+ x2_9+ x2_10+ x2_11 = 1
c3: + x3_0+ x3_1+ x3_2+ x3_3+ x3_4+ x3_5+ x3_6+ x3_7+ x3_8+ x3_9+ x3_10+ x3_11 = 1
c4: + x4_0+ x4_1+ x4_2+ x4_3+ x4_4+ x4_5+ x4_6+ x4_7+ x4_8+ x4_9+ x4_10+ x4_11 = 1
c5: + x5_0+ x5_1+ x5_2+ x5_3+ x5_4+ x5_5+ x5_6+ x5_7+ x5_8+ x5_9+ x5_10+ x5_11 = 1
c6: + x6_0+ x6_1+ x6_2+ x6_3+ x6_4+ x6_5+ x6_6+ x6_7+ x6_8+ x6_9+ x6_10+ x6_11 = 1
c7: + x7_0+ x7_1+ x7_2+ x7_3+ x7_4+ x7_5+ x7_6+ x7_7+ x7_8+ x7_9+ x7_10+ x7_11 = 1
c8: + x8_0+ x8_1+ x8_2+ x8_3+ x8_4+ x8_5+ x8_6+ x8_7+ x8_8+ x8_9+ x8_10+ x8_11 = 1
c9: + x9_0+ x9_1+ x9_2+ x9_3+ x9_4+ x9_5+ x9_6+ x9_7+ x9_8+ x9_9+ x9_10+ x9_11 = 1
c10: + x10_0+ x10_1+ x10_2+ x10_3+ x10_4+ x10_5+ x10_6+ x10_7+ x10_8+ x10_9+ x10_10+ x10_11 = 1
c11: + x11_0+ x11_1+ x11_2+ x11_3+ x11_4+ x11_5+ x11_6+ x11_7+ x11_8+ x11_9+ x11_10+ x11_11 = 1
c12: + x12_0+ x12_1+ x12_2+ x12_3+ x12_4+ x12_5+ x12_6+ x12_7+ x12_8+ x12_9+ x12_10+ x12_11 = 1
c13: + x13_0+ x13_1+ x13_2+ x13_3+ x13_4+ x13_5+ x13_6+ x13_7+ x13_8+ x13_9+ x13_10+ x13_11 = 1
c14: + x14_0+ x14_1+ x14_2+ x14_3+ x14_4+ x14_5+ x14_6+ x14_7+ x14_8+ x14_9+ x14_10+ x14_11 = 1
c15: + x15_0+ x15_1+ x15_2+ x15_3+ x15_4+ x15_5+ x15_6+ x15_7+ x15_8+ x15_9+ x15_10+ x15_11 = 1
c16: + x16_0+ x16_1+ x16_2+ x16_3+ x16_4+ x16_5+ x16_6+ x16_7+ x16_8+ x16_9+ x16_10+ x16_11 = 1
c17: + x17_0+ x17_1+ x17_2+ x17_3+ x17_4+ x17_5+ x17_6+ x17_7+ x17_8+ x17_9+ x17_10+ x17_11 = 1
c18: + x18_0+ x18_1+ x18_2+ x18_3+ x18_4+ x18_5+ x18_6+ x18_7+ x18_8+ x18_9+ x18_10+ x18_11 = 1
c19: + x19_0+ x19_1+ x19_2+ x19_3+ x19_4+ x19_5+ x19_6+ x19_7+ x19_8+ x19_9+ x19_10+ x19_11 = 1
c20: + x20_0+ x20_1+ x20_2+ x20_3+ x20_4+ x20_5+ x20_6+ x20_7+ x20_8+ x20_9+ x20_10+ x20_11 = 1
c21: + x21_0+ x21_1+ x21_2+ x21_3+ x21_4+ x21_5+ x21_6+ x21_7+ x21_8+ x21_9+ x21_10+ x21_11 = 1
c22: + x22_0+ x22_1+ x22_2+ x22_3+ x22_4+ x22_5+ x22_6+ x22_7+ x22_8+ x22_9+ x22_10+ x22_11 = 1


c23: + x0_0 - y_0 <= 0
c24: + x0_1 - y_1 <= 0
c25: + x0_2 - y_2 <= 0
c26: + x0_3 - y_3 <= 0
c27: + x0_4 - y_4 <= 0
c28: + x0_5 - y_5 <= 0
c29: + x0_6 - y_6 <= 0
c30: + x0_7 - y_7 <= 0
c31: + x0_8 - y_8 <= 0
c32: + x0_9 - y_9 <= 0
c33: + x0_10 - y_10 <= 0
c34: + x0_11 - y_11 <= 0
c35: + x1_0 - y_0 <= 0
c36: + x1_1 - y_1 <= 0
c37: + x1_2 - y_2 <= 0
c38: + x1_3 - y_3 <= 0
c39: + x1_4 - y_4 <= 0
c40: + x1_5 - y_5 <= 0
c41: + x1_6 - y_6 <= 0
c42: + x1_7 - y_7 <= 0
c43: + x1_8 - y_8 <= 0
c44: + x1_9 - y_9 <= 0
c45: + x1_10 - y_10 <= 0
c46: + x1_11 - y_11 <= 0
c47: + x2_0 - y_0 <= 0
c48: + x2_1 - y_1 <= 0
c49: + x2_2 - y_2 <= 0
c50: + x2_3 - y_3 <= 0
c51: + x2_4 - y_4 <= 0
c52: + x2_5 - y_5 <= 0
c53: + x2_6 - y_6 <= 0
c54: + x2_7 - y_7 <= 0
c55: + x2_8 - y_8 <= 0
c56: + x2_9 - y_9 <= 0
c57: + x2_10 - y_10 <= 0
c58: + x2_11 - y_11 <= 0
c59: + x3_0 - y_0 <= 0
c60: + x3_1 - y_1 <= 0
c61: + x3_2 - y_2 <= 0
c62: + x3_3 - y_3 <= 0
c63: + x3_4 - y_4 <= 0
c64: + x3_5 - y_5 <= 0
c65: + x3_6 - y_6 <= 0
c66: + x3_7 - y_7 <= 0
c67: + x3_8 - y_8 <= 0
c68: + x3_9 - y_9 <= 0
c69: + x3_10 - y_10 <= 0
c70: + x3_11 - y_11 <= 0
c71: + x4_0 - y_0 <= 0
c72: + x4_1 - y_1 <= 0
c73: + x4_2 - y_2 <= 0
c74: + x4_3 - y_3 <= 0
c75: + x4_4 - y_4 <= 0
c76: + x4_5 - y_5 <= 0
c77: + x4_6 - y_6 <= 0
c78: + x4_7 - y_7 <= 0
c79: + x4_8 - y_8 <= 0
c80: + x4_9 - y_9 <= 0
c81: + x4_10 - y_10 <= 0
c82: + x4_11 - y_11 <= 0
c83: + x5_0 - y_0 <= 0
c84: + x5_1 - y_1 <= 0
c85: + x5_2 - y_2 <= 0
c86: + x5_3 - y_3 <= 0
c87: + x5_4 - y_4 <= 0
c88: + x5_5 - y_5 <= 0
c89: + x5_6 - y_6 <= 0
c90: + x5_7 - y_7 <= 0
c91: + x5_8 - y_8 <= 0
c92: + x5_9 - y_9 <= 0
c93: + x5_10 - y_10 <= 0
c94: + x5_11 - y_11 <= 0
c95: + x6_0 - y_0 <= 0
c96: + x6_1 - y_1 <= 0
c97: + x6_2 - y_2 <= 0
c98: + x6_3 - y_3 <= 0
c99: + x6_4 - y_4 <= 0
c100: + x6_5 - y_5 <= 0
c101: + x6_6 - y_6 <= 0
c102: + x6_7 - y_7 <= 0
c103: + x6_8 - y_8 <= 0
c104: + x6_9 - y_9 <= 0
c105: + x6_10 - y_10 <= 0
c106: + x6_11 - y_11 <= 0
c107: + x7_0 - y_0 <= 0
c108: + x7_1 - y_1 <= 0
c109: + x7_2 - y_2 <= 0
c110: + x7_3 - y_3 <= 0
c111: + x7_4 - y_4 <= 0
c112: + x7_5 - y_5 <= 0
c113: + x7_6 - y_6 <= 0
c114: + x7_7 - y_7 <= 0
c115: + x7_8 - y_8 <= 0
c116: + x7_9 - y_9 <= 0
c117: + x7_10 - y_10 <= 0
c118: + x7_11 - y_11 <= 0
c119: + x8_0 - y_0 <= 0
c120: + x8_1 - y_1 <= 0
c121: + x8_2 - y_2 <= 0
c122: + x8_3 - y_3 <= 0
c123: + x8_4 - y_4 <= 0
c124: + x8_5 - y_5 <= 0
c125: + x8_6 - y_6 <= 0
c126: + x8_7 - y_7 <= 0
c127: + x8_8 - y_8 <= 0
c128: + x8_9 - y_9 <= 0
c129: + x8_10 - y_10 <= 0
c130: + x8_11 - y_11 <= 0
c131: + x9_0 - y_0 <= 0
c132: + x9_1 - y_1 <= 0
c133: + x9_2 - y_2 <= 0
c134: + x9_3 - y_3 <= 0
c135: + x9_4 - y_4 <= 0
c136: + x9_5 - y_5 <= 0
c137: + x9_6 - y_6 <= 0
c138: + x9_7 - y_7 <= 0
c139: + x9_8 - y_8 <= 0
c140: + x9_9 - y_9 <= 0
c141: + x9_10 - y_10 <= 0
c142: + x9_11 - y_11 <= 0
c143: + x10_0 - y_0 <= 0
c144: + x10_1 - y_1 <= 0
c145: + x10_2 - y_2 <= 0
c146: + x10_3 - y_3 <= 0
c147: + x10_4 - y_4 <= 0
c148: + x10_5 - y_5 <= 0
c149: + x10_6 - y_6 <= 0
c150: + x10_7 - y_7 <= 0
c151: + x10_8 - y_8 <= 0
c152: + x10_9 - y_9 <= 0
c153: + x10_10 - y_10 <= 0
c154: + x10_11 - y_11 <= 0
c155: + x11_0 - y_0 <= 0
c156: + x11_1 - y_1 <= 0
c157: + x11_2 - y_2 <= 0
c158: + x11_3 - y_3 <= 0
c159: + x11_4 - y_4 <= 0
c160: + x11_5 - y_5 <= 0
c161: + x11_6 - y_6 <= 0
c162: + x11_7 - y_7 <= 0
c163: + x11_8 - y_8 <= 0
c164: + x11_9 - y_9 <= 0
c165: + x11_10 - y_10 <= 0
c166: + x11_11 - y_11 <= 0
c167: + x12_0 - y_0 <= 0
c168: + x12_1 - y_1 <= 0
c169: + x12_2 - y_2 <= 0
c170: + x12_3 - y_3 <= 0
c171: + x12_4 - y_4 <= 0
c172: + x12_5 - y_5 <= 0
c173: + x12_6 - y_6 <= 0
c174: + x12_7 - y_7 <= 0
c175: + x12_8 - y_8 <= 0
c176: + x12_9 - y_9 <= 0
c177: + x12_10 - y_10 <= 0
c178: + x12_11 - y_11 <= 0
c179: + x13_0 - y_0 <= 0
c180: + x13_1 - y_1 <= 0
c181: + x13_2 - y_2 <= 0
c182: + x13_3 - y_3 <= 0
c183: + x13_4 - y_4 <= 0
c184: + x13_5 - y_5 <= 0
c185: + x13_6 - y_6 <= 0
c186: + x13_7 - y_7 <= 0
c187: + x13_8 - y_8 <= 0
c188: + x13_9 - y_9 <= 0
c189: + x13_10 - y_10 <= 0
c190: + x13_11 - y_11 <= 0
c191: + x14_0 - y_0 <= 0
c192: + x14_1 - y_1 <= 0
c193: + x14_2 - y_2 <= 0
c194: + x14_3 - y_3 <= 0
c195: + x14_4 - y_4 <= 0
c196: + x14_5 - y_5 <= 0
c197: + x14_6 - y_6 <= 0
c198: + x14_7 - y_7 <= 0
c199: + x14_8 - y_8 <= 0
c200: + x14_9 - y_9 <= 0
c201: + x14_10 - y_10 <= 0
c202: + x14_11 - y_11 <= 0
c203: + x15_0 - y_0 <= 0
c204: + x15_1 - y_1 <= 0
c205: + x15_2 - y_2 <= 0
c206: + x15_3 - y_3 <= 0
c207: + x15_4 - y_4 <= 0
c208: + x15_5 - y_5 <= 0
c209: + x15_6 - y_6 <= 0
c210: + x15_7 - y_7 <= 0
c211: + x15_8 - y_8 <= 0
c212: + x15_9 - y_9 <= 0
c213: + x15_10 - y_10 <= 0
c214: + x15_11 - y_11 <= 0
c215: + x16_0 - y_0 <= 0
c216: + x16_1 - y_1 <= 0
c217: + x16_2 - y_2 <= 0
c218: + x16_3 - y_3 <= 0
c219: + x16_4 - y_4 <= 0
c220: + x16_5 - y_5 <= 0
c221: + x16_6 - y_6 <= 0
c222: + x16_7 - y_7 <= 0
c223: + x16_8 - y_8 <= 0
c224: + x16_9 - y_9 <= 0
c225: + x16_10 - y_10 <= 0
c226: + x16_11 - y_11 <= 0
c227: + x17_0 - y_0 <= 0
c228: + x17_1 - y_1 <= 0
c229: + x17_2 - y_2 <= 0
c230: + x17_3 - y_3 <= 0
c231: + x17_4 - y_4 <= 0
c232: + x17_5 - y_5 <= 0
c233: + x17_6 - y_6 <= 0
c234: + x17_7 - y_7 <= 0
c235: + x17_8 - y_8 <= 0
c236: + x17_9 - y_9 <= 0
c237: + x17_10 - y_10 <= 0
c238: + x17_11 - y_11 <= 0
c239: + x18_0 - y_0 <= 0
c240: + x18_1 - y_1 <= 0
c241: + x18_2 - y_2 <= 0
c242: + x18_3 - y_3 <= 0
c243: + x18_4 - y_4 <= 0
c244: + x18_5 - y_5 <= 0
c245: + x18_6 - y_6 <= 0
c246: + x18_7 - y_7 <= 0
c247: + x18_8 - y_8 <= 0
c248: + x18_9 - y_9 <= 0
c249: + x18_10 - y_10 <= 0
c250: + x18_11 - y_11 <= 0
c251: + x19_0 - y_0 <= 0
c252: + x19_1 - y_1 <= 0
c253: + x19_2 - y_2 <= 0
c254: + x19_3 - y_3 <= 0
c255: + x19_4 - y_4 <= 0
c256: + x19_5 - y_5 <= 0
c257: + x19_6 - y_6 <= 0
c258: + x19_7 - y_7 <= 0
c259: + x19_8 - y_8 <= 0
c260: + x19_9 - y_9 <= 0
c261: + x19_10 - y_10 <= 0
c262: + x19_11 - y_11 <= 0
c263: + x20_0 - y_0 <= 0
c264: + x20_1 - y_1 <= 0
c265: + x20_2 - y_2 <= 0
c266: + x20_3 - y_3 <= 0
c267: + x20_4 - y_4 <= 0
c268: + x20_5 - y_5 <= 0
c269: + x20_6 - y_6 <= 0
c270: + x20_7 - y_7 <= 0
c271: + x20_8 - y_8 <= 0
c272: + x20_9 - y_9 <= 0
c273: + x20_10 - y_10 <= 0
c274: + x20_11 - y_11 <= 0
c275: + x21_0 - y_0 <= 0
c276: + x21_1 - y_1 <= 0
c277: + x21_2 - y_2 <= 0
c278: + x21_3 - y_3 <= 0
c279: + x21_4 - y_4 <= 0
c280: + x21_5 - y_5 <= 0
c281: + x21_6 - y_6 <= 0
c282: + x21_7 - y_7 <= 0
c283: + x21_8 - y_8 <= 0
c284: + x21_9 - y_9 <= 0
c285: + x21_10 - y_10 <= 0
c286: + x21_11 - y_11 <= 0
c287: + x22_0 - y_0 <= 0
c288: + x22_1 - y_1 <= 0
c289: + x22_2 - y_2 <= 0
c290: + x22_3 - y_3 <= 0
c291: + x22_4 - y_4 <= 0
c292: + x22_5 - y_5 <= 0
c293: + x22_6 - y_6 <= 0
c294: + x22_7 - y_7 <= 0
c295: + x22_8 - y_8 <= 0
c296: + x22_9 - y_9 <= 0
c297: + x22_10 - y_10 <= 0
c298: + x22_11 - y_11 <= 0


c299: + x0_0 + x1_0 <= 1
c300: + x0_0 + x3_0 <= 1
c301: + x0_0 + x6_0 <= 1
c302: + x0_0 + x8_0 <= 1
c303: + x0_0 + x12_0 <= 1
c304: + x0_0 + x14_0 <= 1
c305: + x0_0 + x17_0 <= 1
c306: + x0_0 + x19_0 <= 1
c307: + x1_0 + x2_0 <= 1
c308: + x1_0 + x5_0 <= 1
c309: + x1_0 + x7_0 <= 1
c310: + x1_0 + x11_0 <= 1
c311: + x1_0 + x13_0 <= 1
c312: + x1_0 + x16_0 <= 1
c313: + x1_0 + x18_0 <= 1
c314: + x2_0 + x4_0 <= 1
c315: + x2_0 + x6_0 <= 1
c316: + x2_0 + x9_0 <= 1
c317: + x2_0 + x12_0 <= 1
c318: + x2_0 + x15_0 <= 1
c319: + x2_0 + x17_0 <= 1
c320: + x2_0 + x20_0 <= 1
c321: + x3_0 + x4_0 <= 1
c322: + x3_0 + x5_0 <= 1
c323: + x3_0 + x9_0 <= 1
c324: + x3_0 + x11_0 <= 1
c325: + x3_0 + x15_0 <= 1
c326: + x3_0 + x16_0 <= 1
c327: + x3_0 + x20_0 <= 1
c328: + x4_0 + x7_0 <= 1
c329: + x4_0 + x8_0 <= 1
c330: + x4_0 + x13_0 <= 1
c331: + x4_0 + x14_0 <= 1
c332: + x4_0 + x18_0 <= 1
c333: + x4_0 + x19_0 <= 1
c334: + x5_0 + x10_0 <= 1
c335: + x5_0 + x12_0 <= 1
c336: + x5_0 + x14_0 <= 1
c337: + x5_0 + x21_0 <= 1
c338: + x6_0 + x10_0 <= 1
c339: + x6_0 + x11_0 <= 1
c340: + x6_0 + x13_0 <= 1
c341: + x6_0 + x21_0 <= 1
c342: + x7_0 + x10_0 <= 1
c343: + x7_0 + x12_0 <= 1
c344: + x7_0 + x15_0 <= 1
c345: + x7_0 + x21_0 <= 1
c346: + x8_0 + x10_0 <= 1
c347: + x8_0 + x11_0 <= 1
c348: + x8_0 + x15_0 <= 1
c349: + x8_0 + x21_0 <= 1
c350: + x9_0 + x10_0 <= 1
c351: + x9_0 + x13_0 <= 1
c352: + x9_0 + x14_0 <= 1
c353: + x9_0 + x21_0 <= 1
c354: + x10_0 + x16_0 <= 1
c355: + x10_0 + x17_0 <= 1
c356: + x10_0 + x18_0 <= 1
c357: + x10_0 + x19_0 <= 1
c358: + x10_0 + x20_0 <= 1
c359: + x11_0 + x22_0 <= 1
c360: + x12_0 + x22_0 <= 1
c361: + x13_0 + x22_0 <= 1
c362: + x14_0 + x22_0 <= 1
c363: + x15_0 + x22_0 <= 1
c364: + x16_0 + x22_0 <= 1
c365: + x17_0 + x22_0 <= 1
c366: + x18_0 + x22_0 <= 1
c367: + x19_0 + x22_0 <= 1
c368: + x20_0 + x22_0 <= 1
c369: + x21_0 + x22_0 <= 1
c370: + x0_1 + x1_1 <= 1
c371: + x0_1 + x3_1 <= 1
c372: + x0_1 + x6_1 <= 1
c373: + x0_1 + x8_1 <= 1
c374: + x0_1 + x12_1 <= 1
c375: + x0_1 + x14_1 <= 1
c376: + x0_1 + x17_1 <= 1
c377: + x0_1 + x19_1 <= 1
c378: + x1_1 + x2_1 <= 1
c379: + x1_1 + x5_1 <= 1
c380: + x1_1 + x7_1 <= 1
c381: + x1_1 + x11_1 <= 1
c382: + x1_1 + x13_1 <= 1
c383: + x1_1 + x16_1 <= 1
c384: + x1_1 + x18_1 <= 1
c385: + x2_1 + x4_1 <= 1
c386: + x2_1 + x6_1 <= 1
c387: + x2_1 + x9_1 <= 1
c388: + x2_1 + x12_1 <= 1
c389: + x2_1 + x15_1 <= 1
c390: + x2_1 + x17_1 <= 1
c391: + x2_1 + x20_1 <= 1
c392: + x3_1 + x4_1 <= 1
c393: + x3_1 + x5_1 <= 1
c394: + x3_1 + x9_1 <= 1
c395: + x3_1 + x11_1 <= 1
c396: + x3_1 + x15_1 <= 1
c397: + x3_1 + x16_1 <= 1
c398: + x3_1 + x20_1 <= 1
c399: + x4_1 + x7_1 <= 1
c400: + x4_1 + x8_1 <= 1
c401: + x4_1 + x13_1 <= 1
c402: + x4_1 + x14_1 <= 1
c403: + x4_1 + x18_1 <= 1
c404: + x4_1 + x19_1 <= 1
c405: + x5_1 + x10_1 <= 1
c406: + x5_1 + x12_1 <= 1
c407: + x5_1 + x14_1 <= 1
c408: + x5_1 + x21_1 <= 1
c409: + x6_1 + x10_1 <= 1
c410: + x6_1 + x11_1 <= 1
c411: + x6_1 + x13_1 <= 1
c412: + x6_1 + x21_1 <= 1
c413: + x7_1 + x10_1 <= 1
c414: + x7_1 + x12_1 <= 1
c415: + x7_1 + x15_1 <= 1
c416: + x7_1 + x21_1 <= 1
c417: + x8_1 + x10_1 <= 1
c418: + x8_1 + x11_1 <= 1
c419: + x8_1 + x15_1 <= 1
c420: + x8_1 + x21_1 <= 1
c421: + x9_1 + x10_1 <= 1
c422: + x9_1 + x13_1 <= 1
c423: + x9_1 + x14_1 <= 1
c424: + x9_1 + x21_1 <= 1
c425: + x10_1 + x16_1 <= 1
c426: + x10_1 + x17_1 <= 1
c427: + x10_1 + x18_1 <= 1
c428: + x10_1 + x19_1 <= 1
c429: + x10_1 + x20_1 <= 1
c430: + x11_1 + x22_1 <= 1
c431: + x12_1 + x22_1 <= 1
c432: + x13_1 + x22_1 <= 1
c433: + x14_1 + x22_1 <= 1
c434: + x15_1 + x22_1 <= 1
c435: + x16_1 + x22_1 <= 1
c436: + x17_1 + x22_1 <= 1
c437: + x18_1 + x22_1 <= 1
c438: + x19_1 + x22_1 <= 1
c439: + x20_1 + x22_1 <= 1
c440: + x21_1 + x22_1 <= 1
c441: + x0_2 + x1_2 <= 1
c442: + x0_2 + x3_2 <= 1
c443: + x0_2 + x6_2 <= 1
c444: + x0_2 + x8_2 <= 1
c445: + x0_2 + x12_2 <= 1
c446: + x0_2 + x14_2 <= 1
c447: + x0_2 + x17_2 <= 1
c448: + x0_2 + x19_2 <= 1
c449: + x1_2 + x2_2 <= 1
c450: + x1_2 + x5_2 <= 1
c451: + x1_2 + x7_2 <= 1
c452: + x1_2 + x11_2 <= 1
c453: + x1_2 + x13_2 <= 1
c454: + x1_2 + x16_2 <= 1
c455: + x1_2 + x18_2 <= 1
c456: + x2_2 + x4_2 <= 1
c457: + x2_2 + x6_2 <= 1
c458: + x2_2 + x9_2 <= 1
c459: + x2_2 + x12_2 <= 1
c460: + x2_2 + x15_2 <= 1
c461: + x2_2 + x17_2 <= 1
c462: + x2_2 + x20_2 <= 1
c463: + x3_2 + x4_2 <= 1
c464: + x3_2 + x5_2 <= 1
c465: + x3_2 + x9_2 <= 1
c466: + x3_2 + x11_2 <= 1
c467: + x3_2 + x15_2 <= 1
c468: + x3_2 + x16_2 <= 1
c469: + x3_2 + x20_2 <= 1
c470: + x4_2 + x7_2 <= 1
c471: + x4_2 + x8_2 <= 1
c472: + x4_2 + x13_2 <= 1
c473: + x4_2 + x14_2 <= 1
c474: + x4_2 + x18_2 <= 1
c475: + x4_2 + x19_2 <= 1
c476: + x5_2 + x10_2 <= 1
c477: + x5_2 + x12_2 <= 1
c478: + x5_2 + x14_2 <= 1
c479: + x5_2 + x21_2 <= 1
c480: + x6_2 + x10_2 <= 1
c481: + x6_2 + x11_2 <= 1
c482: + x6_2 + x13_2 <= 1
c483: + x6_2 + x21_2 <= 1
c484: + x7_2 + x10_2 <= 1
c485: + x7_2 + x12_2 <= 1
c486: + x7_2 + x15_2 <= 1
c487: + x7_2 + x21_2 <= 1
c488: + x8_2 + x10_2 <= 1
c489: + x8_2 + x11_2 <= 1
c490: + x8_2 + x15_2 <= 1
c491: + x8_2 + x21_2 <= 1
c492: + x9_2 + x10_2 <= 1
c493: + x9_2 + x13_2 <= 1
c494: + x9_2 + x14_2 <= 1
c495: + x9_2 + x21_2 <= 1
c496: + x10_2 + x16_2 <= 1
c497: + x10_2 + x17_2 <= 1
c498: + x10_2 + x18_2 <= 1
c499: + x10_2 + x19_2 <= 1
c500: + x10_2 + x20_2 <= 1
c501: + x11_2 + x22_2 <= 1
c502: + x12_2 + x22_2 <= 1
c503: + x13_2 + x22_2 <= 1
c504: + x14_2 + x22_2 <= 1
c505: + x15_2 + x22_2 <= 1
c506: + x16_2 + x22_2 <= 1
c507: + x17_2 + x22_2 <= 1
c508: + x18_2 + x22_2 <= 1
c509: + x19_2 + x22_2 <= 1
c510: + x20_2 + x22_2 <= 1
c511: + x21_2 + x22_2 <= 1
c512: + x0_3 + x1_3 <= 1
c513: + x0_3 + x3_3 <= 1
c514: + x0_3 + x6_3 <= 1
c515: + x0_3 + x8_3 <= 1
c516: + x0_3 + x12_3 <= 1
c517: + x0_3 + x14_3 <= 1
c518: + x0_3 + x17_3 <= 1
c519: + x0_3 + x19_3 <= 1
c520: + x1_3 + x2_3 <= 1
c521: + x1_3 + x5_3 <= 1
c522: + x1_3 + x7_3 <= 1
c523: + x1_3 + x11_3 <= 1
c524: + x1_3 + x13_3 <= 1
c525: + x1_3 + x16_3 <= 1
c526: + x1_3 + x18_3 <= 1
c527: + x2_3 + x4_3 <= 1
c528: + x2_3 + x6_3 <= 1
c529: + x2_3 + x9_3 <= 1
c530: + x2_3 + x12_3 <= 1
c531: + x2_3 + x15_3 <= 1
c532: + x2_3 + x17_3 <= 1
c533: + x2_3 + x20_3 <= 1
c534: + x3_3 + x4_3 <= 1
c535: + x3_3 + x5_3 <= 1
c536: + x3_3 + x9_3 <= 1
c537: + x3_3 + x11_3 <= 1
c538: + x3_3 + x15_3 <= 1
c539: + x3_3 + x16_3 <= 1
c540: + x3_3 + x20_3 <= 1
c541: + x4_3 + x7_3 <= 1
c542: + x4_3 + x8_3 <= 1
c543: + x4_3 + x13_3 <= 1
c544: + x4_3 + x14_3 <= 1
c545: + x4_3 + x18_3 <= 1
c546: + x4_3 + x19_3 <= 1
c547: + x5_3 + x10_3 <= 1
c548: + x5_3 + x12_3 <= 1
c549: + x5_3 + x14_3 <= 1
c550: + x5_3 + x21_3 <= 1
c551: + x6_3 + x10_3 <= 1
c552: + x6_3 + x11_3 <= 1
c553: + x6_3 + x13_3 <= 1
c554: + x6_3 + x21_3 <= 1
c555: + x7_3 + x10_3 <= 1
c556: + x7_3 + x12_3 <= 1
c557: + x7_3 + x15_3 <= 1
c558: + x7_3 + x21_3 <= 1
c559: + x8_3 + x10_3 <= 1
c560: + x8_3 + x11_3 <= 1
c561: + x8_3 + x15_3 <= 1
c562: + x8_3 + x21_3 <= 1
c563: + x9_3 + x10_3 <= 1
c564: + x9_3 + x13_3 <= 1
c565: + x9_3 + x14_3 <= 1
c566: + x9_3 + x21_3 <= 1
c567: + x10_3 + x16_3 <= 1
c568: + x10_3 + x17_3 <= 1
c569: + x10_3 + x18_3 <= 1
c570: + x10_3 + x19_3 <= 1
c571: + x10_3 + x20_3 <= 1
c572: + x11_3 + x22_3 <= 1
c573: + x12_3 + x22_3 <= 1
c574: + x13_3 + x22_3 <= 1
c575: + x14_3 + x22_3 <= 1
c576: + x15_3 + x22_3 <= 1
c577: + x16_3 + x22_3 <= 1
c578: + x17_3 + x22_3 <= 1
c579: + x18_3 + x22_3 <= 1
c580: + x19_3 + x22_3 <= 1
c581: + x20_3 + x22_3 <= 1
c582: + x21_3 + x22_3 <= 1
c583: + x0_4 + x1_4 <= 1
c584: + x0_4 + x3_4 <= 1
c585: + x0_4 + x6_4 <= 1
c586: + x0_4 + x8_4 <= 1
c587: + x0_4 + x12_4 <= 1
c588: + x0_4 + x14_4 <= 1
c589: + x0_4 + x17_4 <= 1
c590: + x0_4 + x19_4 <= 1
c591: + x1_4 + x2_4 <= 1
c592: + x1_4 + x5_4 <= 1
c593: + x1_4 + x7_4 <= 1
c594: + x1_4 + x11_4 <= 1
c595: + x1_4 + x13_4 <= 1
c596: + x1_4 + x16_4 <= 1
c597: + x1_4 + x18_4 <= 1
c598: + x2_4 + x4_4 <= 1
c599: + x2_4 + x6_4 <= 1
c600: + x2_4 + x9_4 <= 1
c601: + x2_4 + x12_4 <= 1
c602: + x2_4 + x15_4 <= 1
c603: + x2_4 + x17_4 <= 1
c604: + x2_4 + x20_4 <= 1
c605: + x3_4 + x4_4 <= 1
c606: + x3_4 + x5_4 <= 1
c607: + x3_4 + x9_4 <= 1
c608: + x3_4 + x11_4 <= 1
c609: + x3_4 + x15_4 <= 1
c610: + x3_4 + x16_4 <= 1
c611: + x3_4 + x20_4 <= 1
c612: + x4_4 + x7_4 <= 1
c613: + x4_4 + x8_4 <= 1
c614: + x4_4 + x13_4 <= 1
c615: + x4_4 + x14_4 <= 1
c616: + x4_4 + x18_4 <= 1
c617: + x4_4 + x19_4 <= 1
c618: + x5_4 + x10_4 <= 1
c619: + x5_4 + x12_4 <= 1
c620: + x5_4 + x14_4 <= 1
c621: + x5_4 + x21_4 <= 1
c622: + x6_4 + x10_4 <= 1
c623: + x6_4 + x11_4 <= 1
c624: + x6_4 + x13_4 <= 1
c625: + x6_4 + x21_4 <= 1
c626: + x7_4 + x10_4 <= 1
c627: + x7_4 + x12_4 <= 1
c628: + x7_4 + x15_4 <= 1
c629: + x7_4 + x21_4 <= 1
c630: + x8_4 + x10_4 <= 1
c631: + x8_4 + x11_4 <= 1
c632: + x8_4 + x15_4 <= 1
c633: + x8_4 + x21_4 <= 1
c634: + x9_4 + x10_4 <= 1
c635: + x9_4 + x13_4 <= 1
c636: + x9_4 + x14_4 <= 1
c637: + x9_4 + x21_4 <= 1
c638: + x10_4 + x16_4 <= 1
c639: + x10_4 + x17_4 <= 1
c640: + x10_4 + x18_4 <= 1
c641: + x10_4 + x19_4 <= 1
c642: + x10_4 + x20_4 <= 1
c643: + x11_4 + x22_4 <= 1
c644: + x12_4 + x22_4 <= 1
c645: + x13_4 + x22_4 <= 1
c646: + x14_4 + x22_4 <= 1
c647: + x15_4 + x22_4 <= 1
c648: + x16_4 + x22_4 <= 1
c649: + x17_4 + x22_4 <= 1
c650: + x18_4 + x22_4 <= 1
c651: + x19_4 + x22_4 <= 1
c652: + x20_4 + x22_4 <= 1
c653: + x21_4 + x22_4 <= 1
c654: + x0_5 + x1_5 <= 1
c655: + x0_5 + x3_5 <= 1
c656: + x0_5 + x6_5 <= 1
c657: + x0_5 + x8_5 <= 1
c658: + x0_5 + x12_5 <= 1
c659: + x0_5 + x14_5 <= 1
c660: + x0_5 + x17_5 <= 1
c661: + x0_5 + x19_5 <= 1
c662: + x1_5 + x2_5 <= 1
c663: + x1_5 + x5_5 <= 1
c664: + x1_5 + x7_5 <= 1
c665: + x1_5 + x11_5 <= 1
c666: + x1_5 + x13_5 <= 1
c667: + x1_5 + x16_5 <= 1
c668: + x1_5 + x18_5 <= 1
c669: + x2_5 + x4_5 <= 1
c670: + x2_5 + x6_5 <= 1
c671: + x2_5 + x9_5 <= 1
c672: + x2_5 + x12_5 <= 1
c673: + x2_5 + x15_5 <= 1
c674: + x2_5 + x17_5 <= 1
c675: + x2_5 + x20_5 <= 1
c676: + x3_5 + x4_5 <= 1
c677: + x3_5 + x5_5 <= 1
c678: + x3_5 + x9_5 <= 1
c679: + x3_5 + x11_5 <= 1
c680: + x3_5 + x15_5 <= 1
c681: + x3_5 + x16_5 <= 1
c682: + x3_5 + x20_5 <= 1
c683: + x4_5 + x7_5 <= 1
c684: + x4_5 + x8_5 <= 1
c685: + x4_5 + x13_5 <= 1
c686: + x4_5 + x14_5 <= 1
c687: + x4_5 + x18_5 <= 1
c688: + x4_5 + x19_5 <= 1
c689: + x5_5 + x10_5 <= 1
c690: + x5_5 + x12_5 <= 1
c691: + x5_5 + x14_5 <= 1
c692: + x5_5 + x21_5 <= 1
c693: + x6_5 + x10_5 <= 1
c694: + x6_5 + x11_5 <= 1
c695: + x6_5 + x13_5 <= 1
c696: + x6_5 + x21_5 <= 1
c697: + x7_5 + x10_5 <= 1
c698: + x7_5 + x12_5 <= 1
c699: + x7_5 + x15_5 <= 1
c700: + x7_5 + x21_5 <= 1
c701: + x8_5 + x10_5 <= 1
c702: + x8_5 + x11_5 <= 1
c703: + x8_5 + x15_5 <= 1
c704: + x8_5 + x21_5 <= 1
c705: + x9_5 + x10_5 <= 1
c706: + x9_5 + x13_5 <= 1
c707: + x9_5 + x14_5 <= 1
c708: + x9_5 + x21_5 <= 1
c709: + x10_5 + x16_5 <= 1
c710: + x10_5 + x17_5 <= 1
c711: + x10_5 + x18_5 <= 1
c712: + x10_5 + x19_5 <= 1
c713: + x10_5 + x20_5 <= 1
c714: + x11_5 + x22_5 <= 1
c715: + x12_5 + x22_5 <= 1
c716: + x13_5 + x22_5 <= 1
c717: + x14_5 + x22_5 <= 1
c718: + x15_5 + x22_5 <= 1
c719: + x16_5 + x22_5 <= 1
c720: + x17_5 + x22_5 <= 1
c721: + x18_5 + x22_5 <= 1
c722: + x19_5 + x22_5 <= 1
c723: + x20_5 + x22_5 <= 1
c724: + x21_5 + x22_5 <= 1
c725: + x0_6 + x1_6 <= 1
c726: + x0_6 + x3_6 <= 1
c727: + x0_6 + x6_6 <= 1
c728: + x0_6 + x8_6 <= 1
c729: + x0_6 + x12_6 <= 1
c730: + x0_6 + x14_6 <= 1
c731: + x0_6 + x17_6 <= 1
c732: + x0_6 + x19_6 <= 1
c733: + x1_6 + x2_6 <= 1
c734: + x1_6 + x5_6 <= 1
c735: + x1_6 + x7_6 <= 1
c736: + x1_6 + x11_6 <= 1
c737: + x1_6 + x13_6 <= 1
c738: + x1_6 + x16_6 <= 1
c739: + x1_6 + x18_6 <= 1
c740: + x2_6 + x4_6 <= 1
c741: + x2_6 + x6_6 <= 1
c742: + x2_6 + x9_6 <= 1
c743: + x2_6 + x12_6 <= 1
c744: + x2_6 + x15_6 <= 1
c745: + x2_6 + x17_6 <= 1
c746: + x2_6 + x20_6 <= 1
c747: + x3_6 + x4_6 <= 1
c748: + x3_6 + x5_6 <= 1
c749: + x3_6 + x9_6 <= 1
c750: + x3_6 + x11_6 <= 1
c751: + x3_6 + x15_6 <= 1
c752: + x3_6 + x16_6 <= 1
c753: + x3_6 + x20_6 <= 1
c754: + x4_6 + x7_6 <= 1
c755: + x4_6 + x8_6 <= 1
c756: + x4_6 + x13_6 <= 1
c757: + x4_6 + x14_6 <= 1
c758: + x4_6 + x18_6 <= 1
c759: + x4_6 + x19_6 <= 1
c760: + x5_6 + x10_6 <= 1
c761: + x5_6 + x12_6 <= 1
c762: + x5_6 + x14_6 <= 1
c763: + x5_6 + x21_6 <= 1
c764: + x6_6 + x10_6 <= 1
c765: + x6_6 + x11_6 <= 1
c766: + x6_6 + x13_6 <= 1
c767: + x6_6 + x21_6 <= 1
c768: + x7_6 + x10_6 <= 1
c769: + x7_6 + x12_6 <= 1
c770: + x7_6 + x15_6 <= 1
c771: + x7_6 + x21_6 <= 1
c772: + x8_6 + x10_6 <= 1
c773: + x8_6 + x11_6 <= 1
c774: + x8_6 + x15_6 <= 1
c775: + x8_6 + x21_6 <= 1
c776: + x9_6 + x10_6 <= 1
c777: + x9_6 + x13_6 <= 1
c778: + x9_6 + x14_6 <= 1
c779: + x9_6 + x21_6 <= 1
c780: + x10_6 + x16_6 <= 1
c781: + x10_6 + x17_6 <= 1
c782: + x10_6 + x18_6 <= 1
c783: + x10_6 + x19_6 <= 1
c784: + x10_6 + x20_6 <= 1
c785: + x11_6 + x22_6 <= 1
c786: + x12_6 + x22_6 <= 1
c787: + x13_6 + x22_6 <= 1
c788: + x14_6 + x22_6 <= 1
c789: + x15_6 + x22_6 <= 1
c790: + x16_6 + x22_6 <= 1
c791: + x17_6 + x22_6 <= 1
c792: + x18_6 + x22_6 <= 1
c793: + x19_6 + x22_6 <= 1
c794: + x20_6 + x22_6 <= 1
c795: + x21_6 + x22_6 <= 1
c796: + x0_7 + x1_7 <= 1
c797: + x0_7 + x3_7 <= 1
c798: + x0_7 + x6_7 <= 1
c799: + x0_7 + x8_7 <= 1
c800: + x0_7 + x12_7 <= 1
c801: + x0_7 + x14_7 <= 1
c802: + x0_7 + x17_7 <= 1
c803: + x0_7 + x19_7 <= 1
c804: + x1_7 + x2_7 <= 1
c805: + x1_7 + x5_7 <= 1
c806: + x1_7 + x7_7 <= 1
c807: + x1_7 + x11_7 <= 1
c808: + x1_7 + x13_7 <= 1
c809: + x1_7 + x16_7 <= 1
c810: + x1_7 + x18_7 <= 1
c811: + x2_7 + x4_7 <= 1
c812: + x2_7 + x6_7 <= 1
c813: + x2_7 + x9_7 <= 1
c814: + x2_7 + x12_7 <= 1
c815: + x2_7 + x15_7 <= 1
c816: + x2_7 + x17_7 <= 1
c817: + x2_7 + x20_7 <= 1
c818: + x3_7 + x4_7 <= 1
c819: + x3_7 + x5_7 <= 1
c820: + x3_7 + x9_7 <= 1
c821: + x3_7 + x11_7 <= 1
c822: + x3_7 + x15_7 <= 1
c823: + x3_7 + x16_7 <= 1
c824: + x3_7 + x20_7 <= 1
c825: + x4_7 + x7_7 <= 1
c826: + x4_7 + x8_7 <= 1
c827: + x4_7 + x13_7 <= 1
c828: + x4_7 + x14_7 <= 1
c829: + x4_7 + x18_7 <= 1
c830: + x4_7 + x19_7 <= 1
c831: + x5_7 + x10_7 <= 1
c832: + x5_7 + x12_7 <= 1
c833: + x5_7 + x14_7 <= 1
c834: + x5_7 + x21_7 <= 1
c835: + x6_7 + x10_7 <= 1
c836: + x6_7 + x11_7 <= 1
c837: + x6_7 + x13_7 <= 1
c838: + x6_7 + x21_7 <= 1
c839: + x7_7 + x10_7 <= 1
c840: + x7_7 + x12_7 <= 1
c841: + x7_7 + x15_7 <= 1
c842: + x7_7 + x21_7 <= 1
c843: + x8_7 + x10_7 <= 1
c844: + x8_7 + x11_7 <= 1
c845: + x8_7 + x15_7 <= 1
c846: + x8_7 + x21_7 <= 1
c847: + x9_7 + x10_7 <= 1
c848: + x9_7 + x13_7 <= 1
c849: + x9_7 + x14_7 <= 1
c850: + x9_7 + x21_7 <= 1
c851: + x10_7 + x16_7 <= 1
c852: + x10_7 + x17_7 <= 1
c853: + x10_7 + x18_7 <= 1
c854: + x10_7 + x19_7 <= 1
c855: + x10_7 + x20_7 <= 1
c856: + x11_7 + x22_7 <= 1
c857: + x12_7 + x22_7 <= 1
c858: + x13_7 + x22_7 <= 1
c859: + x14_7 + x22_7 <= 1
c860: + x15_7 + x22_7 <= 1
c861: + x16_7 + x22_7 <= 1
c862: + x17_7 + x22_7 <= 1
c863: + x18_7 + x22_7 <= 1
c864: + x19_7 + x22_7 <= 1
c865: + x20_7 + x22_7 <= 1
c866: + x21_7 + x22_7 <= 1
c867: + x0_8 + x1_8 <= 1
c868: + x0_8 + x3_8 <= 1
c869: + x0_8 + x6_8 <= 1
c870: + x0_8 + x8_8 <= 1
c871: + x0_8 + x12_8 <= 1
c872: + x0_8 + x14_8 <= 1
c873: + x0_8 + x17_8 <= 1
c874: + x0_8 + x19_8 <= 1
c875: + x1_8 + x2_8 <= 1
c876: + x1_8 + x5_8 <= 1
c877: + x1_8 + x7_8 <= 1
c878: + x1_8 + x11_8 <= 1
c879: + x1_8 + x13_8 <= 1
c880: + x1_8 + x16_8 <= 1
c881: + x1_8 + x18_8 <= 1
c882: + x2_8 + x4_8 <= 1
c883: + x2_8 + x6_8 <= 1
c884: + x2_8 + x9_8 <= 1
c885: + x2_8 + x12_8 <= 1
c886: + x2_8 + x15_8 <= 1
c887: + x2_8 + x17_8 <= 1
c888: + x2_8 + x20_8 <= 1
c889: + x3_8 + x4_8 <= 1
c890: + x3_8 + x5_8 <= 1
c891: + x3_8 + x9_8 <= 1
c892: + x3_8 + x11_8 <= 1
c893: + x3_8 + x15_8 <= 1
c894: + x3_8 + x16_8 <= 1
c895: + x3_8 + x20_8 <= 1
c896: + x4_8 + x7_8 <= 1
c897: + x4_8 + x8_8 <= 1
c898: + x4_8 + x13_8 <= 1
c899: + x4_8 + x14_8 <= 1
c900: + x4_8 + x18_8 <= 1
c901: + x4_8 + x19_8 <= 1
c902: + x5_8 + x10_8 <= 1
c903: + x5_8 + x12_8 <= 1
c904: + x5_8 + x14_8 <= 1
c905: + x5_8 + x21_8 <= 1
c906: + x6_8 + x10_8 <= 1
c907: + x6_8 + x11_8 <= 1
c908: + x6_8 + x13_8 <= 1
c909: + x6_8 + x21_8 <= 1
c910: + x7_8 + x10_8 <= 1
c911: + x7_8 + x12_8 <= 1
c912: + x7_8 + x15_8 <= 1
c913: + x7_8 + x21_8 <= 1
c914: + x8_8 + x10_8 <= 1
c915: + x8_8 + x11_8 <= 1
c916: + x8_8 + x15_8 <= 1
c917: + x8_8 + x21_8 <= 1
c918: + x9_8 + x10_8 <= 1
c919: + x9_8 + x13_8 <= 1
c920: + x9_8 + x14_8 <= 1
c921: + x9_8 + x21_8 <= 1
c922: + x10_8 + x16_8 <= 1
c923: + x10_8 + x17_8 <= 1
c924: + x10_8 + x18_8 <= 1
c925: + x10_8 + x19_8 <= 1
c926: + x10_8 + x20_8 <= 1
c927: + x11_8 + x22_8 <= 1
c928: + x12_8 + x22_8 <= 1
c929: + x13_8 + x22_8 <= 1
c930: + x14_8 + x22_8 <= 1
c931: + x15_8 + x22_8 <= 1
c932: + x16_8 + x22_8 <= 1
c933: + x17_8 + x22_8 <= 1
c934: + x18_8 + x22_8 <= 1
c935: + x19_8 + x22_8 <= 1
c936: + x20_8 + x22_8 <= 1
c937: + x21_8 + x22_8 <= 1
c938: + x0_9 + x1_9 <= 1
c939: + x0_9 + x3_9 <= 1
c940: + x0_9 + x6_9 <= 1
c941: + x0_9 + x8_9 <= 1
c942: + x0_9 + x12_9 <= 1
c943: + x0_9 + x14_9 <= 1
c944: + x0_9 + x17_9 <= 1
c945: + x0_9 + x19_9 <= 1
c946: + x1_9 + x2_9 <= 1
c947: + x1_9 + x5_9 <= 1
c948: + x1_9 + x7_9 <= 1
c949: + x1_9 + x11_9 <= 1
c950: + x1_9 + x13_9 <= 1
c951: + x1_9 + x16_9 <= 1
c952: + x1_9 + x18_9 <= 1
c953: + x2_9 + x4_9 <= 1
c954: + x2_9 + x6_9 <= 1
c955: + x2_9 + x9_9 <= 1
c956: + x2_9 + x12_9 <= 1
c957: + x2_9 + x15_9 <= 1
c958: + x2_9 + x17_9 <= 1
c959: + x2_9 + x20_9 <= 1
c960: + x3_9 + x4_9 <= 1
c961: + x3_9 + x5_9 <= 1
c962: + x3_9 + x9_9 <= 1
c963: + x3_9 + x11_9 <= 1
c964: + x3_9 + x15_9 <= 1
c965: + x3_9 + x16_9 <= 1
c966: + x3_9 + x20_9 <= 1
c967: + x4_9 + x7_9 <= 1
c968: + x4_9 + x8_9 <= 1
c969: + x4_9 + x13_9 <= 1
c970: + x4_9 + x14_9 <= 1
c971: + x4_9 + x18_9 <= 1
c972: + x4_9 + x19_9 <= 1
c973: + x5_9 + x10_9 <= 1
c974: + x5_9 + x12_9 <= 1
c975: + x5_9 + x14_9 <= 1
c976: + x5_9 + x21_9 <= 1
c977: + x6_9 + x10_9 <= 1
c978: + x6_9 + x11_9 <= 1
c979: + x6_9 + x13_9 <= 1
c980: + x6_9 + x21_9 <= 1
c981: + x7_9 + x10_9 <= 1
c982: + x7_9 + x12_9 <= 1
c983: + x7_9 + x15_9 <= 1
c984: + x7_9 + x21_9 <= 1
c985: + x8_9 + x10_9 <= 1
c986: + x8_9 + x11_9 <= 1
c987: + x8_9 + x15_9 <= 1
c988: + x8_9 + x21_9 <= 1
c989: + x9_9 + x10_9 <= 1
c990: + x9_9 + x13_9 <= 1
c991: + x9_9 + x14_9 <= 1
c992: + x9_9 + x21_9 <= 1
c993: + x10_9 + x16_9 <= 1
c994: + x10_9 + x17_9 <= 1
c995: + x10_9 + x18_9 <= 1
c996: + x10_9 + x19_9 <= 1
c997: + x10_9 + x20_9 <= 1
c998: + x11_9 + x22_9 <= 1
c999: + x12_9 + x22_9 <= 1
c1000: + x13_9 + x22_9 <= 1
c1001: + x14_9 + x22_9 <= 1
c1002: + x15_9 + x22_9 <= 1
c1003: + x16_9 + x22_9 <= 1
c1004: + x17_9 + x22_9 <= 1
c1005: + x18_9 + x22_9 <= 1
c1006: + x19_9 + x22_9 <= 1
c1007: + x20_9 + x22_9 <= 1
c1008: + x21_9 + x22_9 <= 1
c1009: + x0_10 + x1_10 <= 1
c1010: + x0_10 + x3_10 <= 1
c1011: + x0_10 + x6_10 <= 1
c1012: + x0_10 + x8_10 <= 1
c1013: + x0_10 + x12_10 <= 1
c1014: + x0_10 + x14_10 <= 1
c1015: + x0_10 + x17_10 <= 1
c1016: + x0_10 + x19_10 <= 1
c1017: + x1_10 + x2_10 <= 1
c1018: + x1_10 + x5_10 <= 1
c1019: + x1_10 + x7_10 <= 1
c1020: + x1_10 + x11_10 <= 1
c1021: + x1_10 + x13_10 <= 1
c1022: + x1_10 + x16_10 <= 1
c1023: + x1_10 + x18_10 <= 1
c1024: + x2_10 + x4_10 <= 1
c1025: + x2_10 + x6_10 <= 1
c1026: + x2_10 + x9_10 <= 1
c1027: + x2_10 + x12_10 <= 1
c1028: + x2_10 + x15_10 <= 1
c1029: + x2_10 + x17_10 <= 1
c1030: + x2_10 + x20_10 <= 1
c1031: + x3_10 + x4_10 <= 1
c1032: + x3_10 + x5_10 <= 1
c1033: + x3_10 + x9_10 <= 1
c1034: + x3_10 + x11_10 <= 1
c1035: + x3_10 + x15_10 <= 1
c1036: + x3_10 + x16_10 <= 1
c1037: + x3_10 + x20_10 <= 1
c1038: + x4_10 + x7_10 <= 1
c1039: + x4_10 + x8_10 <= 1
c1040: + x4_10 + x13_10 <= 1
c1041: + x4_10 + x14_10 <= 1
c1042: + x4_10 + x18_10 <= 1
c1043: + x4_10 + x19_10 <= 1
c1044: + x5_10 + x10_10 <= 1
c1045: + x5_10 + x12_10 <= 1
c1046: + x5_10 + x14_10 <= 1
c1047: + x5_10 + x21_10 <= 1
c1048: + x6_10 + x10_10 <= 1
c1049: + x6_10 + x11_10 <= 1
c1050: + x6_10 + x13_10 <= 1
c1051: + x6_10 + x21_10 <= 1
c1052: + x7_10 + x10_10 <= 1
c1053: + x7_10 + x12_10 <= 1
c1054: + x7_10 + x15_10 <= 1
c1055: + x7_10 + x21_10 <= 1
c1056: + x8_10 + x10_10 <= 1
c1057: + x8_10 + x11_10 <= 1
c1058: + x8_10 + x15_10 <= 1
c1059: + x8_10 + x21_10 <= 1
c1060: + x9_10 + x10_10 <= 1
c1061: + x9_10 + x13_10 <= 1
c1062: + x9_10 + x14_10 <= 1
c1063: + x9_10 + x21_10 <= 1
c1064: + x10_10 + x16_10 <= 1
c1065: + x10_10 + x17_10 <= 1
c1066: + x10_10 + x18_10 <= 1
c1067: + x10_10 + x19_10 <= 1
c1068: + x10_10 + x20_10 <= 1
c1069: + x11_10 + x22_10 <= 1
c1070: + x12_10 + x22_10 <= 1
c1071: + x13_10 + x22_10 <= 1
c1072: + x14_10 + x22_10 <= 1
c1073: + x15_10 + x22_10 <= 1
c1074: + x16_10 + x22_10 <= 1
c1075: + x17_10 + x22_10 <= 1
c1076: + x18_10 + x22_10 <= 1
c1077: + x19_10 + x22_10 <= 1
c1078: + x20_10 + x22_10 <= 1
c1079: + x21_10 + x22_10 <= 1
c1080: + x0_11 + x1_11 <= 1
c1081: + x0_11 + x3_11 <= 1
c1082: + x0_11 + x6_11 <= 1
c1083: + x0_11 + x8_11 <= 1
c1084: + x0_11 + x12_11 <= 1
c1085: + x0_11 + x14_11 <= 1
c1086: + x0_11 + x17_11 <= 1
c1087: + x0_11 + x19_11 <= 1
c1088: + x1_11 + x2_11 <= 1
c1089: + x1_11 + x5_11 <= 1
c1090: + x1_11 + x7_11 <= 1
c1091: + x1_11 + x11_11 <= 1
c1092: + x1_11 + x13_11 <= 1
c1093: + x1_11 + x16_11 <= 1
c1094: + x1_11 + x18_11 <= 1
c1095: + x2_11 + x4_11 <= 1
c1096: + x2_11 + x6_11 <= 1
c1097: + x2_11 + x9_11 <= 1
c1098: + x2_11 + x12_11 <= 1
c1099: + x2_11 + x15_11 <= 1
c1100: + x2_11 + x17_11 <= 1
c1101: + x2_11 + x20_11 <= 1
c1102: + x3_11 + x4_11 <= 1
c1103: + x3_11 + x5_11 <= 1
c1104: + x3_11 + x9_11 <= 1
c1105: + x3_11 + x11_11 <= 1
c1106: + x3_11 + x15_11 <= 1
c1107: + x3_11 + x16_11 <= 1
c1108: + x3_11 + x20_11 <= 1
c1109: + x4_11 + x7_11 <= 1
c1110: + x4_11 + x8_11 <= 1
c1111: + x4_11 + x13_11 <= 1
c1112: + x4_11 + x14_11 <= 1
c1113: + x4_11 + x18_11 <= 1
c1114: + x4_11 + x19_11 <= 1
c1115: + x5_11 + x10_11 <= 1
c1116: + x5_11 + x12_11 <= 1
c1117: + x5_11 + x14_11 <= 1
c1118: + x5_11 + x21_11 <= 1
c1119: + x6_11 + x10_11 <= 1
c1120: + x6_11 + x11_11 <= 1
c1121: + x6_11 + x13_11 <= 1
c1122: + x6_11 + x21_11 <= 1
c1123: + x7_11 + x10_11 <= 1
c1124: + x7_11 + x12_11 <= 1
c1125: + x7_11 + x15_11 <= 1
c1126: + x7_11 + x21_11 <= 1
c1127: + x8_11 + x10_11 <= 1
c1128: + x8_11 + x11_11 <= 1
c1129: + x8_11 + x15_11 <= 1
c1130: + x8_11 + x21_11 <= 1
c1131: + x9_11 + x10_11 <= 1
c1132: + x9_11 + x13_11 <= 1
c1133: + x9_11 + x14_11 <= 1
c1134: + x9_11 + x21_11 <= 1
c1135: + x10_11 + x16_11 <= 1
c1136: + x10_11 + x17_11 <= 1
c1137: + x10_11 + x18_11 <= 1
c1138: + x10_11 + x19_11 <= 1
c1139: + x10_11 + x20_11 <= 1
c1140: + x11_11 + x22_11 <= 1
c1141: + x12_11 + x22_11 <= 1
c1142: + x13_11 + x22_11 <= 1
c1143: + x14_11 + x22_11 <= 1
c1144: + x15_11 + x22_11 <= 1
c1145: + x16_11 + x22_11 <= 1
c1146: + x17_11 + x22_11 <= 1
c1147: + x18_11 + x22_11 <= 1
c1148: + x19_11 + x22_11 <= 1
c1149: + x20_11 + x22_11 <= 1
c1150: + x21_11 + x22_11 <= 1


c1151:  + x0_0 + x1_0 + x2_0 + x3_0 + x4_0 + x5_0 + x6_0 + x7_0 + x8_0 + x9_0 + x10_0 + x11_0 + x12_0 + x13_0 + x14_0 + x15_0 + x16_0 + x17_0 + x18_0 + x19_0 + x20_0 + x21_0 + x22_0 - (+ x0_1 + x1_1 + x2_1 + x3_1 + x4_1 + x5_1 + x6_1 + x7_1 + x8_1 + x9_1 + x10_1 + x11_1 + x12_1 + x13_1 + x14_1 + x15_1 + x16_1 + x17_1 + x18_1 + x19_1 + x20_1 + x21_1 + x22_1) >= 0
c1152:  + x0_1 + x1_1 + x2_1 + x3_1 + x4_1 + x5_1 + x6_1 + x7_1 + x8_1 + x9_1 + x10_1 + x11_1 + x12_1 + x13_1 + x14_1 + x15_1 + x16_1 + x17_1 + x18_1 + x19_1 + x20_1 + x21_1 + x22_1 - (+ x0_2 + x1_2 + x2_2 + x3_2 + x4_2 + x5_2 + x6_2 + x7_2 + x8_2 + x9_2 + x10_2 + x11_2 + x12_2 + x13_2 + x14_2 + x15_2 + x16_2 + x17_2 + x18_2 + x19_2 + x20_2 + x21_2 + x22_2) >= 0
c1153:  + x0_2 + x1_2 + x2_2 + x3_2 + x4_2 + x5_2 + x6_2 + x7_2 + x8_2 + x9_2 + x10_2 + x11_2 + x12_2 + x13_2 + x14_2 + x15_2 + x16_2 + x17_2 + x18_2 + x19_2 + x20_2 + x21_2 + x22_2 - (+ x0_3 + x1_3 + x2_3 + x3_3 + x4_3 + x5_3 + x6_3 + x7_3 + x8_3 + x9_3 + x10_3 + x11_3 + x12_3 + x13_3 + x14_3 + x15_3 + x16_3 + x17_3 + x18_3 + x19_3 + x20_3 + x21_3 + x22_3) >= 0
c1154:  + x0_3 + x1_3 + x2_3 + x3_3 + x4_3 + x5_3 + x6_3 + x7_3 + x8_3 + x9_3 + x10_3 + x11_3 + x12_3 + x13_3 + x14_3 + x15_3 + x16_3 + x17_3 + x18_3 + x19_3 + x20_3 + x21_3 + x22_3 - (+ x0_4 + x1_4 + x2_4 + x3_4 + x4_4 + x5_4 + x6_4 + x7_4 + x8_4 + x9_4 + x10_4 + x11_4 + x12_4 + x13_4 + x14_4 + x15_4 + x16_4 + x17_4 + x18_4 + x19_4 + x20_4 + x21_4 + x22_4) >= 0
c1155:  + x0_4 + x1_4 + x2_4 + x3_4 + x4_4 + x5_4 + x6_4 + x7_4 + x8_4 + x9_4 + x10_4 + x11_4 + x12_4 + x13_4 + x14_4 + x15_4 + x16_4 + x17_4 + x18_4 + x19_4 + x20_4 + x21_4 + x22_4 - (+ x0_5 + x1_5 + x2_5 + x3_5 + x4_5 + x5_5 + x6_5 + x7_5 + x8_5 + x9_5 + x10_5 + x11_5 + x12_5 + x13_5 + x14_5 + x15_5 + x16_5 + x17_5 + x18_5 + x19_5 + x20_5 + x21_5 + x22_5) >= 0
c1156:  + x0_5 + x1_5 + x2_5 + x3_5 + x4_5 + x5_5 + x6_5 + x7_5 + x8_5 + x9_5 + x10_5 + x11_5 + x12_5 + x13_5 + x14_5 + x15_5 + x16_5 + x17_5 + x18_5 + x19_5 + x20_5 + x21_5 + x22_5 - (+ x0_6 + x1_6 + x2_6 + x3_6 + x4_6 + x5_6 + x6_6 + x7_6 + x8_6 + x9_6 + x10_6 + x11_6 + x12_6 + x13_6 + x14_6 + x15_6 + x16_6 + x17_6 + x18_6 + x19_6 + x20_6 + x21_6 + x22_6) >= 0
c1157:  + x0_6 + x1_6 + x2_6 + x3_6 + x4_6 + x5_6 + x6_6 + x7_6 + x8_6 + x9_6 + x10_6 + x11_6 + x12_6 + x13_6 + x14_6 + x15_6 + x16_6 + x17_6 + x18_6 + x19_6 + x20_6 + x21_6 + x22_6 - (+ x0_7 + x1_7 + x2_7 + x3_7 + x4_7 + x5_7 + x6_7 + x7_7 + x8_7 + x9_7 + x10_7 + x11_7 + x12_7 + x13_7 + x14_7 + x15_7 + x16_7 + x17_7 + x18_7 + x19_7 + x20_7 + x21_7 + x22_7) >= 0
c1158:  + x0_7 + x1_7 + x2_7 + x3_7 + x4_7 + x5_7 + x6_7 + x7_7 + x8_7 + x9_7 + x10_7 + x11_7 + x12_7 + x13_7 + x14_7 + x15_7 + x16_7 + x17_7 + x18_7 + x19_7 + x20_7 + x21_7 + x22_7 - (+ x0_8 + x1_8 + x2_8 + x3_8 + x4_8 + x5_8 + x6_8 + x7_8 + x8_8 + x9_8 + x10_8 + x11_8 + x12_8 + x13_8 + x14_8 + x15_8 + x16_8 + x17_8 + x18_8 + x19_8 + x20_8 + x21_8 + x22_8) >= 0
c1159:  + x0_8 + x1_8 + x2_8 + x3_8 + x4_8 + x5_8 + x6_8 + x7_8 + x8_8 + x9_8 + x10_8 + x11_8 + x12_8 + x13_8 + x14_8 + x15_8 + x16_8 + x17_8 + x18_8 + x19_8 + x20_8 + x21_8 + x22_8 - (+ x0_9 + x1_9 + x2_9 + x3_9 + x4_9 + x5_9 + x6_9 + x7_9 + x8_9 + x9_9 + x10_9 + x11_9 + x12_9 + x13_9 + x14_9 + x15_9 + x16_9 + x17_9 + x18_9 + x19_9 + x20_9 + x21_9 + x22_9) >= 0
c1160:  + x0_9 + x1_9 + x2_9 + x3_9 + x4_9 + x5_9 + x6_9 + x7_9 + x8_9 + x9_9 + x10_9 + x11_9 + x12_9 + x13_9 + x14_9 + x15_9 + x16_9 + x17_9 + x18_9 + x19_9 + x20_9 + x21_9 + x22_9 - (+ x0_10 + x1_10 + x2_10 + x3_10 + x4_10 + x5_10 + x6_10 + x7_10 + x8_10 + x9_10 + x10_10 + x11_10 + x12_10 + x13_10 + x14_10 + x15_10 + x16_10 + x17_10 + x18_10 + x19_10 + x20_10 + x21_10 + x22_10) >= 0
c1161:  + x0_10 + x1_10 + x2_10 + x3_10 + x4_10 + x5_10 + x6_10 + x7_10 + x8_10 + x9_10 + x10_10 + x11_10 + x12_10 + x13_10 + x14_10 + x15_10 + x16_10 + x17_10 + x18_10 + x19_10 + x20_10 + x21_10 + x22_10 - (+ x0_11 + x1_11 + x2_11 + x3_11 + x4_11 + x5_11 + x6_11 + x7_11 + x8_11 + x9_11 + x10_11 + x11_11 + x12_11 + x13_11 + x14_11 + x15_11 + x16_11 + x17_11 + x18_11 + x19_11 + x20_11 + x21_11 + x22_11) >= 0



Binary
y_0
x0_0
x1_0
x2_0
x3_0
x4_0
x5_0
x6_0
x7_0
x8_0
x9_0
x10_0
x11_0
x12_0
x13_0
x14_0
x15_0
x16_0
x17_0
x18_0
x19_0
x20_0
x21_0
x22_0

y_1
x0_1
x1_1
x2_1
x3_1
x4_1
x5_1
x6_1
x7_1
x8_1
x9_1
x10_1
x11_1
x12_1
x13_1
x14_1
x15_1
x16_1
x17_1
x18_1
x19_1
x20_1
x21_1
x22_1

y_2
x0_2
x1_2
x2_2
x3_2
x4_2
x5_2
x6_2
x7_2
x8_2
x9_2
x10_2
x11_2
x12_2
x13_2
x14_2
x15_2
x16_2
x17_2
x18_2
x19_2
x20_2
x21_2
x22_2

y_3
x0_3
x1_3
x2_3
x3_3
x4_3
x5_3
x6_3
x7_3
x8_3
x9_3
x10_3
x11_3
x12_3
x13_3
x14_3
x15_3
x16_3
x17_3
x18_3
x19_3
x20_3
x21_3
x22_3

y_4
x0_4
x1_4
x2_4
x3_4
x4_4
x5_4
x6_4
x7_4
x8_4
x9_4
x10_4
x11_4
x12_4
x13_4
x14_4
x15_4
x16_4
x17_4
x18_4
x19_4
x20_4
x21_4
x22_4

y_5
x0_5
x1_5
x2_5
x3_5
x4_5
x5_5
x6_5
x7_5
x8_5
x9_5
x10_5
x11_5
x12_5
x13_5
x14_5
x15_5
x16_5
x17_5
x18_5
x19_5
x20_5
x21_5
x22_5

y_6
x0_6
x1_6
x2_6
x3_6
x4_6
x5_6
x6_6
x7_6
x8_6
x9_6
x10_6
x11_6
x12_6
x13_6
x14_6
x15_6
x16_6
x17_6
x18_6
x19_6
x20_6
x21_6
x22_6

y_7
x0_7
x1_7
x2_7
x3_7
x4_7
x5_7
x6_7
x7_7
x8_7
x9_7
x10_7
x11_7
x12_7
x13_7
x14_7
x15_7
x16_7
x17_7
x18_7
x19_7
x20_7
x21_7
x22_7

y_8
x0_8
x1_8
x2_8
x3_8
x4_8
x5_8
x6_8
x7_8
x8_8
x9_8
x10_8
x11_8
x12_8
x13_8
x14_8
x15_8
x16_8
x17_8
x18_8
x19_8
x20_8
x21_8
x22_8

y_9
x0_9
x1_9
x2_9
x3_9
x4_9
x5_9
x6_9
x7_9
x8_9
x9_9
x10_9
x11_9
x12_9
x13_9
x14_9
x15_9
x16_9
x17_9
x18_9
x19_9
x20_9
x21_9
x22_9

y_10
x0_10
x1_10
x2_10
x3_10
x4_10
x5_10
x6_10
x7_10
x8_10
x9_10
x10_10
x11_10
x12_10
x13_10
x14_10
x15_10
x16_10
x17_10
x18_10
x19_10
x20_10
x21_10
x22_10

y_11
x0_11
x1_11
x2_11
x3_11
x4_11
x5_11
x6_11
x7_11
x8_11
x9_11
x10_11
x11_11
x12_11
x13_11
x14_11
x15_11
x16_11
x17_11
x18_11
x19_11
x20_11
x21_11
x22_11


End